90
1191
10
73
79
94
94
5
63
64
62
82
13
0 3
0 4
0 7
0 8
0 13
0 14
0 18
0 19
0 20
0 21
0 22
0 23
0 29
0 30
0 31
0 32
0 37
0 39
0 44
0 46
0 48
0 53
0 58
0 59
0 62
0 63
0 65
0 72
0 73
0 81
0 87
0 88
1 2
1 6
1 9
1 10
1 14
1 15
1 17
1 18
1 24
1 36
1 40
1 43
1 48
1 50
1 52
1 53
1 54
1 55
1 58
1 65
1 66
1 68
1 69
1 75
1 76
1 80
1 81
1 87
2 7
2 8
2 15
2 18
2 23
2 29
2 30
2 37
2 39
2 42
2 46
2 47
2 51
2 52
2 54
2 55
2 57
2 58
2 62
2 71
2 72
2 73
2 75
2 76
2 79
2 81
2 88
3 4
3 7
3 12
3 13
3 17
3 18
3 19
3 22
3 27
3 31
3 32
3 36
3 38
3 45
3 46
3 61
3 70
3 76
3 79
3 81
4 9
4 10
4 11
4 14
4 19
4 29
4 36
4 37
4 38
4 39
4 40
4 42
4 47
4 50
4 51
4 52
4 59
4 60
4 64
4 70
4 73
4 74
4 76
4 80
4 88
5 8
5 14
5 15
5 21
5 25
5 32
5 36
5 46
5 49
5 53
5 55
5 56
5 64
5 67
5 69
5 71
5 72
5 74
5 80
5 85
5 87
6 10
6 21
6 23
6 24
6 32
6 36
6 38
6 45
6 47
6 52
6 54
6 59
6 67
6 70
6 71
6 72
6 75
6 76
6 79
6 80
6 81
6 82
7 8
7 11
7 13
7 20
7 21
7 23
7 24
7 25
7 30
7 32
7 34
7 37
7 43
7 50
7 52
7 59
7 64
7 66
7 67
7 68
7 80
7 81
7 82
7 84
7 88
8 12
8 14
8 15
8 16
8 23
8 26
8 29
8 32
8 34
8 36
8 37
8 40
8 45
8 47
8 52
8 56
8 58
8 63
8 70
8 71
8 79
8 84
9 13
9 16
9 22
9 26
9 27
9 34
9 37
9 39
9 41
9 42
9 44
9 45
9 47
9 49
9 61
9 71
9 75
9 76
9 77
9 79
9 81
10 11
10 14
10 16
10 18
10 19
10 21
10 22
10 25
10 26
10 30
10 36
10 37
10 39
10 42
10 44
10 48
10 49
10 50
10 51
10 52
10 56
10 61
10 65
10 69
10 73
10 74
10 78
10 80
10 83
10 85
10 88
11 16
11 17
11 20
11 22
11 23
11 26
11 28
11 29
11 30
11 31
11 32
11 33
11 35
11 36
11 38
11 40
11 41
11 42
11 43
11 46
11 48
11 49
11 53
11 54
11 55
11 56
11 59
11 63
11 65
11 69
11 81
11 89
12 15
12 18
12 19
12 21
12 22
12 28
12 31
12 33
12 36
12 37
12 38
12 53
12 64
12 66
12 75
12 80
12 85
12 86
12 87
13 16
13 22
13 25
13 26
13 28
13 30
13 32
13 33
13 35
13 37
13 38
13 39
13 45
13 48
13 49
13 54
13 55
13 57
13 63
13 68
13 72
13 73
13 75
13 76
13 78
13 80
13 87
14 18
14 19
14 21
14 23
14 34
14 38
14 40
14 48
14 49
14 50
14 53
14 72
14 73
14 74
14 76
14 86
14 87
15 23
15 36
15 40
15 42
15 46
15 49
15 50
15 51
15 52
15 54
15 59
15 61
15 63
15 69
15 70
15 72
15 75
15 78
15 86
16 20
16 28
16 29
16 34
16 35
16 39
16 41
16 42
16 45
16 46
16 56
16 57
16 58
16 62
16 72
16 74
16 79
16 80
16 81
16 82
16 87
16 89
17 26
17 34
17 38
17 44
17 53
17 58
17 61
17 62
17 66
17 68
17 70
17 73
17 75
17 76
17 82
17 85
17 89
18 20
18 28
18 33
18 35
18 36
18 39
18 44
18 62
18 69
18 72
18 73
18 74
18 79
18 80
18 82
18 83
18 86
18 87
18 88
19 25
19 28
19 30
19 31
19 32
19 34
19 38
19 40
19 43
19 47
19 52
19 53
19 55
19 56
19 57
19 58
19 59
19 65
19 66
19 73
19 76
19 81
19 82
19 84
19 86
19 88
20 25
20 26
20 28
20 37
20 39
20 41
20 42
20 46
20 54
20 55
20 56
20 57
20 63
20 69
20 75
20 76
20 77
20 82
20 83
20 84
20 86
21 24
21 25
21 27
21 31
21 34
21 43
21 44
21 45
21 47
21 48
21 49
21 51
21 53
21 58
21 60
21 61
21 67
21 69
21 70
21 71
21 77
21 79
21 82
21 87
22 31
22 43
22 47
22 49
22 50
22 52
22 55
22 58
22 73
22 74
22 80
22 82
22 86
22 87
22 88
22 89
23 29
23 38
23 39
23 44
23 46
23 47
23 53
23 63
23 67
23 71
23 72
23 76
23 84
23 85
23 87
24 31
24 33
24 34
24 37
24 39
24 42
24 43
24 45
24 47
24 48
24 49
24 50
24 52
24 57
24 58
24 60
24 62
24 64
24 65
24 69
24 73
24 77
24 80
24 88
25 40
25 41
25 42
25 46
25 48
25 49
25 51
25 52
25 54
25 64
25 70
25 71
25 73
25 77
25 78
25 84
25 85
25 88
26 29
26 32
26 34
26 38
26 40
26 44
26 52
26 53
26 62
26 64
26 65
26 66
26 69
26 75
26 83
26 85
26 87
27 30
27 34
27 36
27 39
27 40
27 44
27 47
27 49
27 53
27 54
27 57
27 60
27 67
27 79
27 81
27 83
27 85
27 86
27 87
28 31
28 33
28 38
28 39
28 48
28 49
28 50
28 61
28 62
28 63
28 70
28 73
28 80
28 81
28 87
28 89
29 35
29 37
29 42
29 44
29 46
29 48
29 51
29 52
29 57
29 58
29 59
29 63
29 64
29 65
29 66
29 69
29 71
29 76
29 78
29 79
29 84
29 87
30 37
30 39
30 43
30 52
30 57
30 59
30 61
30 66
30 77
30 81
30 88
31 32
31 34
31 35
31 39
31 42
31 43
31 44
31 45
31 49
31 50
31 58
31 61
31 65
31 66
31 81
31 85
31 87
31 88
32 38
32 39
32 40
32 43
32 52
32 56
32 58
32 68
32 74
32 76
32 78
32 79
32 80
32 81
32 82
32 87
32 88
32 89
33 36
33 48
33 53
33 54
33 56
33 58
33 67
33 70
33 74
33 80
33 82
33 86
33 89
34 36
34 42
34 47
34 49
34 52
34 54
34 55
34 57
34 59
34 64
34 66
34 72
34 75
34 84
35 37
35 40
35 41
35 42
35 56
35 57
35 60
35 69
35 73
35 79
35 82
35 86
35 88
36 45
36 58
36 61
36 65
36 67
36 68
36 70
36 71
36 76
36 77
36 80
36 82
36 87
36 88
36 89
37 38
37 41
37 42
37 45
37 48
37 51
37 55
37 57
37 58
37 64
37 67
37 75
37 77
37 82
37 87
38 39
38 45
38 46
38 53
38 58
38 62
38 63
38 69
38 76
38 77
38 79
38 80
38 82
38 83
38 84
38 85
38 88
39 40
39 45
39 46
39 47
39 50
39 51
39 54
39 55
39 57
39 61
39 63
39 66
39 67
39 70
39 71
39 81
39 83
39 84
39 87
39 89
40 42
40 44
40 46
40 56
40 60
40 66
40 70
40 74
40 75
40 76
40 77
40 79
40 80
40 81
40 85
40 86
40 88
41 42
41 44
41 49
41 50
41 51
41 55
41 59
41 61
41 63
41 64
41 65
41 66
41 68
41 77
41 83
41 85
41 87
41 89
42 43
42 47
42 50
42 53
42 58
42 62
42 68
42 70
42 72
42 77
42 84
42 87
42 88
43 45
43 46
43 47
43 48
43 49
43 52
43 55
43 60
43 65
43 66
43 67
43 71
43 78
44 45
44 47
44 53
44 56
44 62
44 64
44 75
44 83
44 86
44 89
45 48
45 55
45 58
45 59
45 60
45 64
45 67
45 68
45 71
45 73
45 76
45 80
45 82
45 87
46 52
46 55
46 63
46 69
46 70
46 73
46 76
46 77
46 78
47 52
47 56
47 57
47 61
47 69
47 70
47 80
47 83
48 49
48 54
48 59
48 60
48 66
48 70
48 71
48 73
48 74
48 76
48 77
48 78
48 80
48 81
48 88
48 89
49 54
49 55
49 62
49 64
49 65
49 71
49 75
49 79
49 85
49 87
49 88
50 54
50 62
50 64
50 65
50 68
50 69
50 71
50 74
50 75
50 80
50 84
50 88
51 52
51 61
51 67
51 68
51 72
51 75
51 77
51 78
51 79
51 80
51 81
51 85
51 87
51 89
52 53
52 64
52 75
52 76
52 78
52 79
52 83
53 60
53 62
53 65
53 66
53 69
53 71
53 72
53 75
53 80
53 81
53 82
53 83
53 86
53 88
54 56
54 59
54 64
54 65
54 67
54 69
54 71
54 77
54 78
54 79
54 82
54 85
54 86
54 87
54 88
54 89
55 62
55 63
55 64
55 67
55 69
55 76
55 79
55 82
55 87
55 89
56 57
56 58
56 60
56 61
56 69
56 74
56 77
56 83
56 85
57 58
57 59
57 65
57 70
57 72
57 79
57 80
57 83
57 85
57 89
58 60
58 61
58 62
58 63
58 66
58 77
58 78
58 79
59 60
59 62
59 66
59 67
59 68
59 69
59 74
59 77
59 85
59 86
59 87
60 64
60 70
60 72
60 76
60 78
60 85
60 87
61 64
61 73
61 75
61 77
61 80
61 83
61 85
61 88
62 66
62 68
62 75
62 77
62 80
62 81
62 83
62 87
63 64
63 70
63 72
63 73
63 74
63 76
63 82
63 89
64 76
64 77
64 82
64 84
64 87
64 88
65 66
65 69
65 71
65 75
65 76
65 83
65 88
65 89
66 73
66 76
66 83
66 88
67 69
67 70
67 77
67 85
67 88
67 89
68 69
68 70
68 72
68 74
68 80
68 81
68 87
68 89
69 74
69 75
69 80
69 84
69 85
69 87
70 73
70 75
70 76
70 77
70 78
70 82
70 88
71 73
71 83
71 85
71 89
72 73
72 77
72 79
72 80
72 86
72 87
72 89
73 79
74 75
74 83
75 81
75 85
75 86
75 88
76 77
76 78
76 79
76 80
76 81
76 84
76 87
77 79
77 80
77 82
77 83
77 85
77 87
77 89
78 79
78 81
78 82
78 84
78 85
78 86
78 88
79 85
79 86
79 87
80 81
80 82
81 82
81 88
82 87
82 89
83 84
83 87
83 88
84 85
84 86
84 87
85 87
86 87
86 88
68 48 58 9 89 14 60 51 85
44 41 31 29 12 86 87 79 5
26 65 1 3 66 83 77 23 55
21 82 56 78 63 30 24 11 57
81 71 36 50 74 32 18 7 25
88 17 22 52 20 45 62 76 43
53 33 16 34 0 28 42 72 49
40 46 19 37 27 2 80 39 6
15 47 61 54 84 69 13 8 75
35 64 4 67 70 10 73 38 59
